\* Partitioning *\
Minimize
OBJ: x_(Conv__435)(server_0) + 0.05 x_(Conv__435)(server_1)
 + 0.00675675675676 x_(resnet50_conv1_relu_Relu)(server_0)
 + 0.000337837837838 x_(resnet50_conv1_relu_Relu)(server_1)
 + 0.109797297297 x_(resnet50_conv2_block1_1_conv_Conv2D)(server_0)
 + 0.00548986486486 x_(resnet50_conv2_block1_1_conv_Conv2D)(server_1)
 + 0.00168918918919 x_(resnet50_conv2_block1_1_relu_Relu)(server_0)
 + 8.44594594595e-05 x_(resnet50_conv2_block1_1_relu_Relu)(server_1)
 + 0.974662162162 x_(resnet50_conv2_block1_2_conv_Conv2D)(server_0)
 + 0.0487331081081 x_(resnet50_conv2_block1_2_conv_Conv2D)(server_1)
 + 0.00168918918919 x_(resnet50_conv2_block1_2_relu_Relu)(server_0)
 + 8.44594594595e-05 x_(resnet50_conv2_block1_2_relu_Relu)(server_1)
 + 0.439189189189 x_(resnet50_conv2_block1_3_conv_Conv2D)(server_0)
 + 0.0219594594595 x_(resnet50_conv2_block1_3_conv_Conv2D)(server_1)
 + 0.0152027027027 x_(resnet50_pool1_pool_MaxPool)(server_0)
 + 0.000760135135135 x_(resnet50_pool1_pool_MaxPool)(server_1)
 + 0.965220067713 y_((Conv__435)_(resnet50_conv1_relu_Relu))((server_0)_(server_1))
 + 0.965220067713 y_((Conv__435)_(resnet50_conv1_relu_Relu))((server_1)_(server_0))
 + 0.180978762696 y_((InputGeneratorNode)_(resnet50_conv1_conv_Conv2D__6))((server_0)_(server_1))
 + 0.180978762696 y_((InputGeneratorNode)_(resnet50_conv1_conv_Conv2D__6))((server_1)_(server_0))
 + 0.180978762696 y_((resnet50_conv1_conv_Conv2D__6)_(Conv__435))((server_0)_(server_1))
 + 0.180978762696 y_((resnet50_conv1_conv_Conv2D__6)_(Conv__435))((server_1)_(server_0))
 + 0.965220067713 y_((resnet50_conv1_relu_Relu)_(resnet50_pool1_pad_Pad))((server_0)_(server_1))
 + 0.965220067713 y_((resnet50_conv1_relu_Relu)_(resnet50_pool1_pad_Pad))((server_1)_(server_0))
 + 0.241305016928 y_((resnet50_conv2_block1_1_conv_Conv2D)_(resnet50_conv2_block1_1_relu_Relu))((server_0)_(server_1))
 + 0.241305016928 y_((resnet50_conv2_block1_1_conv_Conv2D)_(resnet50_conv2_block1_1_relu_Relu))((server_1)_(server_0))
 + 0.241305016928 y_((resnet50_conv2_block1_1_relu_Relu)_(resnet50_conv2_block1_2_conv_Conv2D))((server_0)_(server_1))
 + 0.241305016928 y_((resnet50_conv2_block1_1_relu_Relu)_(resnet50_conv2_block1_2_conv_Conv2D))((server_1)_(server_0))
 + 0.241305016928 y_((resnet50_conv2_block1_2_conv_Conv2D)_(resnet50_conv2_block1_2_relu_Relu))((server_0)_(server_1))
 + 0.241305016928 y_((resnet50_conv2_block1_2_conv_Conv2D)_(resnet50_conv2_block1_2_relu_Relu))((server_1)_(server_0))
 + 0.241305016928 y_((resnet50_conv2_block1_2_relu_Relu)_(resnet50_conv2_block1_3_conv_Conv2D))((server_0)_(server_1))
 + 0.241305016928 y_((resnet50_conv2_block1_2_relu_Relu)_(resnet50_conv2_block1_3_conv_Conv2D))((server_1)_(server_0))
 + 0.965220067713 y_((resnet50_conv2_block1_3_conv_Conv2D)_(OutputReceiverNode))((server_0)_(server_1))
 + 0.965220067713 y_((resnet50_conv2_block1_3_conv_Conv2D)_(OutputReceiverNode))((server_1)_(server_0))
 + y_((resnet50_pool1_pad_Pad)_(resnet50_pool1_pool_MaxPool))((server_0)_(server_1))
 + y_((resnet50_pool1_pad_Pad)_(resnet50_pool1_pool_MaxPool))((server_1)_(server_0))
 + 0.241305016928 y_((resnet50_pool1_pool_MaxPool)_(resnet50_conv2_block1_1_conv_Conv2D))((server_0)_(server_1))
 + 0.241305016928 y_((resnet50_pool1_pool_MaxPool)_(resnet50_conv2_block1_1_conv_Conv2D))((server_1)_(server_0))

Subject To
_C1: x_(resnet50_conv1_conv_Conv2D__6)(server_0)
 + x_(resnet50_conv1_conv_Conv2D__6)(server_1) = 1
_C10: x_(resnet50_conv2_block1_3_conv_Conv2D)(server_0)
 + x_(resnet50_conv2_block1_3_conv_Conv2D)(server_1) = 1
_C11: x_(InputGeneratorNode)(server_0) + x_(InputGeneratorNode)(server_1) = 1
_C12: x_(OutputReceiverNode)(server_0) + x_(OutputReceiverNode)(server_1) = 1
_C13: y_((resnet50_conv1_conv_Conv2D__6)_(Conv__435))((server_0)_(server_0))
 + y_((resnet50_conv1_conv_Conv2D__6)_(Conv__435))((server_0)_(server_1))
 + y_((resnet50_conv1_conv_Conv2D__6)_(Conv__435))((server_1)_(server_0))
 + y_((resnet50_conv1_conv_Conv2D__6)_(Conv__435))((server_1)_(server_1)) = 1
_C14: y_((Conv__435)_(resnet50_conv1_relu_Relu))((server_0)_(server_0))
 + y_((Conv__435)_(resnet50_conv1_relu_Relu))((server_0)_(server_1))
 + y_((Conv__435)_(resnet50_conv1_relu_Relu))((server_1)_(server_0))
 + y_((Conv__435)_(resnet50_conv1_relu_Relu))((server_1)_(server_1)) = 1
_C15:
 y_((resnet50_conv1_relu_Relu)_(resnet50_pool1_pad_Pad))((server_0)_(server_0))
 + y_((resnet50_conv1_relu_Relu)_(resnet50_pool1_pad_Pad))((server_0)_(server_1))
 + y_((resnet50_conv1_relu_Relu)_(resnet50_pool1_pad_Pad))((server_1)_(server_0))
 + y_((resnet50_conv1_relu_Relu)_(resnet50_pool1_pad_Pad))((server_1)_(server_1))
 = 1
_C16:
 y_((resnet50_pool1_pad_Pad)_(resnet50_pool1_pool_MaxPool))((server_0)_(server_0))
 + y_((resnet50_pool1_pad_Pad)_(resnet50_pool1_pool_MaxPool))((server_0)_(server_1))
 + y_((resnet50_pool1_pad_Pad)_(resnet50_pool1_pool_MaxPool))((server_1)_(server_0))
 + y_((resnet50_pool1_pad_Pad)_(resnet50_pool1_pool_MaxPool))((server_1)_(server_1))
 = 1
_C17:
 y_((resnet50_pool1_pool_MaxPool)_(resnet50_conv2_block1_1_conv_Conv2D))((server_0)_(server_0))
 + y_((resnet50_pool1_pool_MaxPool)_(resnet50_conv2_block1_1_conv_Conv2D))((server_0)_(server_1))
 + y_((resnet50_pool1_pool_MaxPool)_(resnet50_conv2_block1_1_conv_Conv2D))((server_1)_(server_0))
 + y_((resnet50_pool1_pool_MaxPool)_(resnet50_conv2_block1_1_conv_Conv2D))((server_1)_(server_1))
 = 1
_C18:
 y_((resnet50_conv2_block1_1_conv_Conv2D)_(resnet50_conv2_block1_1_relu_Relu))((server_0)_(server_0))
 + y_((resnet50_conv2_block1_1_conv_Conv2D)_(resnet50_conv2_block1_1_relu_Relu))((server_0)_(server_1))
 + y_((resnet50_conv2_block1_1_conv_Conv2D)_(resnet50_conv2_block1_1_relu_Relu))((server_1)_(server_0))
 + y_((resnet50_conv2_block1_1_conv_Conv2D)_(resnet50_conv2_block1_1_relu_Relu))((server_1)_(server_1))
 = 1
_C19:
 y_((resnet50_conv2_block1_1_relu_Relu)_(resnet50_conv2_block1_2_conv_Conv2D))((server_0)_(server_0))
 + y_((resnet50_conv2_block1_1_relu_Relu)_(resnet50_conv2_block1_2_conv_Conv2D))((server_0)_(server_1))
 + y_((resnet50_conv2_block1_1_relu_Relu)_(resnet50_conv2_block1_2_conv_Conv2D))((server_1)_(server_0))
 + y_((resnet50_conv2_block1_1_relu_Relu)_(resnet50_conv2_block1_2_conv_Conv2D))((server_1)_(server_1))
 = 1
_C2: x_(Conv__435)(server_0) + x_(Conv__435)(server_1) = 1
_C20:
 y_((resnet50_conv2_block1_2_conv_Conv2D)_(resnet50_conv2_block1_2_relu_Relu))((server_0)_(server_0))
 + y_((resnet50_conv2_block1_2_conv_Conv2D)_(resnet50_conv2_block1_2_relu_Relu))((server_0)_(server_1))
 + y_((resnet50_conv2_block1_2_conv_Conv2D)_(resnet50_conv2_block1_2_relu_Relu))((server_1)_(server_0))
 + y_((resnet50_conv2_block1_2_conv_Conv2D)_(resnet50_conv2_block1_2_relu_Relu))((server_1)_(server_1))
 = 1
_C21:
 y_((resnet50_conv2_block1_2_relu_Relu)_(resnet50_conv2_block1_3_conv_Conv2D))((server_0)_(server_0))
 + y_((resnet50_conv2_block1_2_relu_Relu)_(resnet50_conv2_block1_3_conv_Conv2D))((server_0)_(server_1))
 + y_((resnet50_conv2_block1_2_relu_Relu)_(resnet50_conv2_block1_3_conv_Conv2D))((server_1)_(server_0))
 + y_((resnet50_conv2_block1_2_relu_Relu)_(resnet50_conv2_block1_3_conv_Conv2D))((server_1)_(server_1))
 = 1
_C22:
 y_((InputGeneratorNode)_(resnet50_conv1_conv_Conv2D__6))((server_0)_(server_0))
 + y_((InputGeneratorNode)_(resnet50_conv1_conv_Conv2D__6))((server_0)_(server_1))
 + y_((InputGeneratorNode)_(resnet50_conv1_conv_Conv2D__6))((server_1)_(server_0))
 + y_((InputGeneratorNode)_(resnet50_conv1_conv_Conv2D__6))((server_1)_(server_1))
 = 1
_C23:
 y_((resnet50_conv2_block1_3_conv_Conv2D)_(OutputReceiverNode))((server_0)_(server_0))
 + y_((resnet50_conv2_block1_3_conv_Conv2D)_(OutputReceiverNode))((server_0)_(server_1))
 + y_((resnet50_conv2_block1_3_conv_Conv2D)_(OutputReceiverNode))((server_1)_(server_0))
 + y_((resnet50_conv2_block1_3_conv_Conv2D)_(OutputReceiverNode))((server_1)_(server_1))
 = 1
_C24: x_(resnet50_conv1_conv_Conv2D__6)(server_0)
 - y_((resnet50_conv1_conv_Conv2D__6)_(Conv__435))((server_0)_(server_0))
 - y_((resnet50_conv1_conv_Conv2D__6)_(Conv__435))((server_0)_(server_1)) = 0
_C25: x_(resnet50_conv1_conv_Conv2D__6)(server_1)
 - y_((resnet50_conv1_conv_Conv2D__6)_(Conv__435))((server_1)_(server_0))
 - y_((resnet50_conv1_conv_Conv2D__6)_(Conv__435))((server_1)_(server_1)) = 0
_C26: x_(Conv__435)(server_0)
 - y_((Conv__435)_(resnet50_conv1_relu_Relu))((server_0)_(server_0))
 - y_((Conv__435)_(resnet50_conv1_relu_Relu))((server_0)_(server_1)) = 0
_C27: x_(Conv__435)(server_1)
 - y_((Conv__435)_(resnet50_conv1_relu_Relu))((server_1)_(server_0))
 - y_((Conv__435)_(resnet50_conv1_relu_Relu))((server_1)_(server_1)) = 0
_C28: x_(resnet50_conv1_relu_Relu)(server_0)
 - y_((resnet50_conv1_relu_Relu)_(resnet50_pool1_pad_Pad))((server_0)_(server_0))
 - y_((resnet50_conv1_relu_Relu)_(resnet50_pool1_pad_Pad))((server_0)_(server_1))
 = 0
_C29: x_(resnet50_conv1_relu_Relu)(server_1)
 - y_((resnet50_conv1_relu_Relu)_(resnet50_pool1_pad_Pad))((server_1)_(server_0))
 - y_((resnet50_conv1_relu_Relu)_(resnet50_pool1_pad_Pad))((server_1)_(server_1))
 = 0
_C3: x_(resnet50_conv1_relu_Relu)(server_0)
 + x_(resnet50_conv1_relu_Relu)(server_1) = 1
_C30: x_(resnet50_pool1_pad_Pad)(server_0)
 - y_((resnet50_pool1_pad_Pad)_(resnet50_pool1_pool_MaxPool))((server_0)_(server_0))
 - y_((resnet50_pool1_pad_Pad)_(resnet50_pool1_pool_MaxPool))((server_0)_(server_1))
 = 0
_C31: x_(resnet50_pool1_pad_Pad)(server_1)
 - y_((resnet50_pool1_pad_Pad)_(resnet50_pool1_pool_MaxPool))((server_1)_(server_0))
 - y_((resnet50_pool1_pad_Pad)_(resnet50_pool1_pool_MaxPool))((server_1)_(server_1))
 = 0
_C32: x_(resnet50_pool1_pool_MaxPool)(server_0)
 - y_((resnet50_pool1_pool_MaxPool)_(resnet50_conv2_block1_1_conv_Conv2D))((server_0)_(server_0))
 - y_((resnet50_pool1_pool_MaxPool)_(resnet50_conv2_block1_1_conv_Conv2D))((server_0)_(server_1))
 = 0
_C33: x_(resnet50_pool1_pool_MaxPool)(server_1)
 - y_((resnet50_pool1_pool_MaxPool)_(resnet50_conv2_block1_1_conv_Conv2D))((server_1)_(server_0))
 - y_((resnet50_pool1_pool_MaxPool)_(resnet50_conv2_block1_1_conv_Conv2D))((server_1)_(server_1))
 = 0
_C34: x_(resnet50_conv2_block1_1_conv_Conv2D)(server_0)
 - y_((resnet50_conv2_block1_1_conv_Conv2D)_(resnet50_conv2_block1_1_relu_Relu))((server_0)_(server_0))
 - y_((resnet50_conv2_block1_1_conv_Conv2D)_(resnet50_conv2_block1_1_relu_Relu))((server_0)_(server_1))
 = 0
_C35: x_(resnet50_conv2_block1_1_conv_Conv2D)(server_1)
 - y_((resnet50_conv2_block1_1_conv_Conv2D)_(resnet50_conv2_block1_1_relu_Relu))((server_1)_(server_0))
 - y_((resnet50_conv2_block1_1_conv_Conv2D)_(resnet50_conv2_block1_1_relu_Relu))((server_1)_(server_1))
 = 0
_C36: x_(resnet50_conv2_block1_1_relu_Relu)(server_0)
 - y_((resnet50_conv2_block1_1_relu_Relu)_(resnet50_conv2_block1_2_conv_Conv2D))((server_0)_(server_0))
 - y_((resnet50_conv2_block1_1_relu_Relu)_(resnet50_conv2_block1_2_conv_Conv2D))((server_0)_(server_1))
 = 0
_C37: x_(resnet50_conv2_block1_1_relu_Relu)(server_1)
 - y_((resnet50_conv2_block1_1_relu_Relu)_(resnet50_conv2_block1_2_conv_Conv2D))((server_1)_(server_0))
 - y_((resnet50_conv2_block1_1_relu_Relu)_(resnet50_conv2_block1_2_conv_Conv2D))((server_1)_(server_1))
 = 0
_C38: x_(resnet50_conv2_block1_2_conv_Conv2D)(server_0)
 - y_((resnet50_conv2_block1_2_conv_Conv2D)_(resnet50_conv2_block1_2_relu_Relu))((server_0)_(server_0))
 - y_((resnet50_conv2_block1_2_conv_Conv2D)_(resnet50_conv2_block1_2_relu_Relu))((server_0)_(server_1))
 = 0
_C39: x_(resnet50_conv2_block1_2_conv_Conv2D)(server_1)
 - y_((resnet50_conv2_block1_2_conv_Conv2D)_(resnet50_conv2_block1_2_relu_Relu))((server_1)_(server_0))
 - y_((resnet50_conv2_block1_2_conv_Conv2D)_(resnet50_conv2_block1_2_relu_Relu))((server_1)_(server_1))
 = 0
_C4: x_(resnet50_pool1_pad_Pad)(server_0)
 + x_(resnet50_pool1_pad_Pad)(server_1) = 1
_C40: x_(resnet50_conv2_block1_2_relu_Relu)(server_0)
 - y_((resnet50_conv2_block1_2_relu_Relu)_(resnet50_conv2_block1_3_conv_Conv2D))((server_0)_(server_0))
 - y_((resnet50_conv2_block1_2_relu_Relu)_(resnet50_conv2_block1_3_conv_Conv2D))((server_0)_(server_1))
 = 0
_C41: x_(resnet50_conv2_block1_2_relu_Relu)(server_1)
 - y_((resnet50_conv2_block1_2_relu_Relu)_(resnet50_conv2_block1_3_conv_Conv2D))((server_1)_(server_0))
 - y_((resnet50_conv2_block1_2_relu_Relu)_(resnet50_conv2_block1_3_conv_Conv2D))((server_1)_(server_1))
 = 0
_C42: x_(InputGeneratorNode)(server_0)
 - y_((InputGeneratorNode)_(resnet50_conv1_conv_Conv2D__6))((server_0)_(server_0))
 - y_((InputGeneratorNode)_(resnet50_conv1_conv_Conv2D__6))((server_0)_(server_1))
 = 0
_C43: x_(InputGeneratorNode)(server_1)
 - y_((InputGeneratorNode)_(resnet50_conv1_conv_Conv2D__6))((server_1)_(server_0))
 - y_((InputGeneratorNode)_(resnet50_conv1_conv_Conv2D__6))((server_1)_(server_1))
 = 0
_C44: x_(resnet50_conv2_block1_3_conv_Conv2D)(server_0)
 - y_((resnet50_conv2_block1_3_conv_Conv2D)_(OutputReceiverNode))((server_0)_(server_0))
 - y_((resnet50_conv2_block1_3_conv_Conv2D)_(OutputReceiverNode))((server_0)_(server_1))
 = 0
_C45: x_(resnet50_conv2_block1_3_conv_Conv2D)(server_1)
 - y_((resnet50_conv2_block1_3_conv_Conv2D)_(OutputReceiverNode))((server_1)_(server_0))
 - y_((resnet50_conv2_block1_3_conv_Conv2D)_(OutputReceiverNode))((server_1)_(server_1))
 = 0
_C46: x_(Conv__435)(server_0)
 - y_((resnet50_conv1_conv_Conv2D__6)_(Conv__435))((server_0)_(server_0))
 - y_((resnet50_conv1_conv_Conv2D__6)_(Conv__435))((server_1)_(server_0)) = 0
_C47: x_(Conv__435)(server_1)
 - y_((resnet50_conv1_conv_Conv2D__6)_(Conv__435))((server_0)_(server_1))
 - y_((resnet50_conv1_conv_Conv2D__6)_(Conv__435))((server_1)_(server_1)) = 0
_C48: x_(resnet50_conv1_relu_Relu)(server_0)
 - y_((Conv__435)_(resnet50_conv1_relu_Relu))((server_0)_(server_0))
 - y_((Conv__435)_(resnet50_conv1_relu_Relu))((server_1)_(server_0)) = 0
_C49: x_(resnet50_conv1_relu_Relu)(server_1)
 - y_((Conv__435)_(resnet50_conv1_relu_Relu))((server_0)_(server_1))
 - y_((Conv__435)_(resnet50_conv1_relu_Relu))((server_1)_(server_1)) = 0
_C5: x_(resnet50_pool1_pool_MaxPool)(server_0)
 + x_(resnet50_pool1_pool_MaxPool)(server_1) = 1
_C50: x_(resnet50_pool1_pad_Pad)(server_0)
 - y_((resnet50_conv1_relu_Relu)_(resnet50_pool1_pad_Pad))((server_0)_(server_0))
 - y_((resnet50_conv1_relu_Relu)_(resnet50_pool1_pad_Pad))((server_1)_(server_0))
 = 0
_C51: x_(resnet50_pool1_pad_Pad)(server_1)
 - y_((resnet50_conv1_relu_Relu)_(resnet50_pool1_pad_Pad))((server_0)_(server_1))
 - y_((resnet50_conv1_relu_Relu)_(resnet50_pool1_pad_Pad))((server_1)_(server_1))
 = 0
_C52: x_(resnet50_pool1_pool_MaxPool)(server_0)
 - y_((resnet50_pool1_pad_Pad)_(resnet50_pool1_pool_MaxPool))((server_0)_(server_0))
 - y_((resnet50_pool1_pad_Pad)_(resnet50_pool1_pool_MaxPool))((server_1)_(server_0))
 = 0
_C53: x_(resnet50_pool1_pool_MaxPool)(server_1)
 - y_((resnet50_pool1_pad_Pad)_(resnet50_pool1_pool_MaxPool))((server_0)_(server_1))
 - y_((resnet50_pool1_pad_Pad)_(resnet50_pool1_pool_MaxPool))((server_1)_(server_1))
 = 0
_C54: x_(resnet50_conv2_block1_1_conv_Conv2D)(server_0)
 - y_((resnet50_pool1_pool_MaxPool)_(resnet50_conv2_block1_1_conv_Conv2D))((server_0)_(server_0))
 - y_((resnet50_pool1_pool_MaxPool)_(resnet50_conv2_block1_1_conv_Conv2D))((server_1)_(server_0))
 = 0
_C55: x_(resnet50_conv2_block1_1_conv_Conv2D)(server_1)
 - y_((resnet50_pool1_pool_MaxPool)_(resnet50_conv2_block1_1_conv_Conv2D))((server_0)_(server_1))
 - y_((resnet50_pool1_pool_MaxPool)_(resnet50_conv2_block1_1_conv_Conv2D))((server_1)_(server_1))
 = 0
_C56: x_(resnet50_conv2_block1_1_relu_Relu)(server_0)
 - y_((resnet50_conv2_block1_1_conv_Conv2D)_(resnet50_conv2_block1_1_relu_Relu))((server_0)_(server_0))
 - y_((resnet50_conv2_block1_1_conv_Conv2D)_(resnet50_conv2_block1_1_relu_Relu))((server_1)_(server_0))
 = 0
_C57: x_(resnet50_conv2_block1_1_relu_Relu)(server_1)
 - y_((resnet50_conv2_block1_1_conv_Conv2D)_(resnet50_conv2_block1_1_relu_Relu))((server_0)_(server_1))
 - y_((resnet50_conv2_block1_1_conv_Conv2D)_(resnet50_conv2_block1_1_relu_Relu))((server_1)_(server_1))
 = 0
_C58: x_(resnet50_conv2_block1_2_conv_Conv2D)(server_0)
 - y_((resnet50_conv2_block1_1_relu_Relu)_(resnet50_conv2_block1_2_conv_Conv2D))((server_0)_(server_0))
 - y_((resnet50_conv2_block1_1_relu_Relu)_(resnet50_conv2_block1_2_conv_Conv2D))((server_1)_(server_0))
 = 0
_C59: x_(resnet50_conv2_block1_2_conv_Conv2D)(server_1)
 - y_((resnet50_conv2_block1_1_relu_Relu)_(resnet50_conv2_block1_2_conv_Conv2D))((server_0)_(server_1))
 - y_((resnet50_conv2_block1_1_relu_Relu)_(resnet50_conv2_block1_2_conv_Conv2D))((server_1)_(server_1))
 = 0
_C6: x_(resnet50_conv2_block1_1_conv_Conv2D)(server_0)
 + x_(resnet50_conv2_block1_1_conv_Conv2D)(server_1) = 1
_C60: x_(resnet50_conv2_block1_2_relu_Relu)(server_0)
 - y_((resnet50_conv2_block1_2_conv_Conv2D)_(resnet50_conv2_block1_2_relu_Relu))((server_0)_(server_0))
 - y_((resnet50_conv2_block1_2_conv_Conv2D)_(resnet50_conv2_block1_2_relu_Relu))((server_1)_(server_0))
 = 0
_C61: x_(resnet50_conv2_block1_2_relu_Relu)(server_1)
 - y_((resnet50_conv2_block1_2_conv_Conv2D)_(resnet50_conv2_block1_2_relu_Relu))((server_0)_(server_1))
 - y_((resnet50_conv2_block1_2_conv_Conv2D)_(resnet50_conv2_block1_2_relu_Relu))((server_1)_(server_1))
 = 0
_C62: x_(resnet50_conv2_block1_3_conv_Conv2D)(server_0)
 - y_((resnet50_conv2_block1_2_relu_Relu)_(resnet50_conv2_block1_3_conv_Conv2D))((server_0)_(server_0))
 - y_((resnet50_conv2_block1_2_relu_Relu)_(resnet50_conv2_block1_3_conv_Conv2D))((server_1)_(server_0))
 = 0
_C63: x_(resnet50_conv2_block1_3_conv_Conv2D)(server_1)
 - y_((resnet50_conv2_block1_2_relu_Relu)_(resnet50_conv2_block1_3_conv_Conv2D))((server_0)_(server_1))
 - y_((resnet50_conv2_block1_2_relu_Relu)_(resnet50_conv2_block1_3_conv_Conv2D))((server_1)_(server_1))
 = 0
_C64: x_(resnet50_conv1_conv_Conv2D__6)(server_0)
 - y_((InputGeneratorNode)_(resnet50_conv1_conv_Conv2D__6))((server_0)_(server_0))
 - y_((InputGeneratorNode)_(resnet50_conv1_conv_Conv2D__6))((server_1)_(server_0))
 = 0
_C65: x_(resnet50_conv1_conv_Conv2D__6)(server_1)
 - y_((InputGeneratorNode)_(resnet50_conv1_conv_Conv2D__6))((server_0)_(server_1))
 - y_((InputGeneratorNode)_(resnet50_conv1_conv_Conv2D__6))((server_1)_(server_1))
 = 0
_C66: x_(OutputReceiverNode)(server_0)
 - y_((resnet50_conv2_block1_3_conv_Conv2D)_(OutputReceiverNode))((server_0)_(server_0))
 - y_((resnet50_conv2_block1_3_conv_Conv2D)_(OutputReceiverNode))((server_1)_(server_0))
 = 0
_C67: x_(OutputReceiverNode)(server_1)
 - y_((resnet50_conv2_block1_3_conv_Conv2D)_(OutputReceiverNode))((server_0)_(server_1))
 - y_((resnet50_conv2_block1_3_conv_Conv2D)_(OutputReceiverNode))((server_1)_(server_1))
 = 0
_C68: x_(InputGeneratorNode)(server_0) = 1
_C69: x_(OutputReceiverNode)(server_0) = 1
_C7: x_(resnet50_conv2_block1_1_relu_Relu)(server_0)
 + x_(resnet50_conv2_block1_1_relu_Relu)(server_1) = 1
_C8: x_(resnet50_conv2_block1_2_conv_Conv2D)(server_0)
 + x_(resnet50_conv2_block1_2_conv_Conv2D)(server_1) = 1
_C9: x_(resnet50_conv2_block1_2_relu_Relu)(server_0)
 + x_(resnet50_conv2_block1_2_relu_Relu)(server_1) = 1
Binaries
x_(Conv__435)(server_0)
x_(Conv__435)(server_1)
x_(InputGeneratorNode)(server_0)
x_(InputGeneratorNode)(server_1)
x_(OutputReceiverNode)(server_0)
x_(OutputReceiverNode)(server_1)
x_(resnet50_conv1_conv_Conv2D__6)(server_0)
x_(resnet50_conv1_conv_Conv2D__6)(server_1)
x_(resnet50_conv1_relu_Relu)(server_0)
x_(resnet50_conv1_relu_Relu)(server_1)
x_(resnet50_conv2_block1_1_conv_Conv2D)(server_0)
x_(resnet50_conv2_block1_1_conv_Conv2D)(server_1)
x_(resnet50_conv2_block1_1_relu_Relu)(server_0)
x_(resnet50_conv2_block1_1_relu_Relu)(server_1)
x_(resnet50_conv2_block1_2_conv_Conv2D)(server_0)
x_(resnet50_conv2_block1_2_conv_Conv2D)(server_1)
x_(resnet50_conv2_block1_2_relu_Relu)(server_0)
x_(resnet50_conv2_block1_2_relu_Relu)(server_1)
x_(resnet50_conv2_block1_3_conv_Conv2D)(server_0)
x_(resnet50_conv2_block1_3_conv_Conv2D)(server_1)
x_(resnet50_pool1_pad_Pad)(server_0)
x_(resnet50_pool1_pad_Pad)(server_1)
x_(resnet50_pool1_pool_MaxPool)(server_0)
x_(resnet50_pool1_pool_MaxPool)(server_1)
y_((Conv__435)_(resnet50_conv1_relu_Relu))((server_0)_(server_0))
y_((Conv__435)_(resnet50_conv1_relu_Relu))((server_0)_(server_1))
y_((Conv__435)_(resnet50_conv1_relu_Relu))((server_1)_(server_0))
y_((Conv__435)_(resnet50_conv1_relu_Relu))((server_1)_(server_1))
y_((InputGeneratorNode)_(resnet50_conv1_conv_Conv2D__6))((server_0)_(server_0))
y_((InputGeneratorNode)_(resnet50_conv1_conv_Conv2D__6))((server_0)_(server_1))
y_((InputGeneratorNode)_(resnet50_conv1_conv_Conv2D__6))((server_1)_(server_0))
y_((InputGeneratorNode)_(resnet50_conv1_conv_Conv2D__6))((server_1)_(server_1))
y_((resnet50_conv1_conv_Conv2D__6)_(Conv__435))((server_0)_(server_0))
y_((resnet50_conv1_conv_Conv2D__6)_(Conv__435))((server_0)_(server_1))
y_((resnet50_conv1_conv_Conv2D__6)_(Conv__435))((server_1)_(server_0))
y_((resnet50_conv1_conv_Conv2D__6)_(Conv__435))((server_1)_(server_1))
y_((resnet50_conv1_relu_Relu)_(resnet50_pool1_pad_Pad))((server_0)_(server_0))
y_((resnet50_conv1_relu_Relu)_(resnet50_pool1_pad_Pad))((server_0)_(server_1))
y_((resnet50_conv1_relu_Relu)_(resnet50_pool1_pad_Pad))((server_1)_(server_0))
y_((resnet50_conv1_relu_Relu)_(resnet50_pool1_pad_Pad))((server_1)_(server_1))
y_((resnet50_conv2_block1_1_conv_Conv2D)_(resnet50_conv2_block1_1_relu_Relu))((server_0)_(server_0))
y_((resnet50_conv2_block1_1_conv_Conv2D)_(resnet50_conv2_block1_1_relu_Relu))((server_0)_(server_1))
y_((resnet50_conv2_block1_1_conv_Conv2D)_(resnet50_conv2_block1_1_relu_Relu))((server_1)_(server_0))
y_((resnet50_conv2_block1_1_conv_Conv2D)_(resnet50_conv2_block1_1_relu_Relu))((server_1)_(server_1))
y_((resnet50_conv2_block1_1_relu_Relu)_(resnet50_conv2_block1_2_conv_Conv2D))((server_0)_(server_0))
y_((resnet50_conv2_block1_1_relu_Relu)_(resnet50_conv2_block1_2_conv_Conv2D))((server_0)_(server_1))
y_((resnet50_conv2_block1_1_relu_Relu)_(resnet50_conv2_block1_2_conv_Conv2D))((server_1)_(server_0))
y_((resnet50_conv2_block1_1_relu_Relu)_(resnet50_conv2_block1_2_conv_Conv2D))((server_1)_(server_1))
y_((resnet50_conv2_block1_2_conv_Conv2D)_(resnet50_conv2_block1_2_relu_Relu))((server_0)_(server_0))
y_((resnet50_conv2_block1_2_conv_Conv2D)_(resnet50_conv2_block1_2_relu_Relu))((server_0)_(server_1))
y_((resnet50_conv2_block1_2_conv_Conv2D)_(resnet50_conv2_block1_2_relu_Relu))((server_1)_(server_0))
y_((resnet50_conv2_block1_2_conv_Conv2D)_(resnet50_conv2_block1_2_relu_Relu))((server_1)_(server_1))
y_((resnet50_conv2_block1_2_relu_Relu)_(resnet50_conv2_block1_3_conv_Conv2D))((server_0)_(server_0))
y_((resnet50_conv2_block1_2_relu_Relu)_(resnet50_conv2_block1_3_conv_Conv2D))((server_0)_(server_1))
y_((resnet50_conv2_block1_2_relu_Relu)_(resnet50_conv2_block1_3_conv_Conv2D))((server_1)_(server_0))
y_((resnet50_conv2_block1_2_relu_Relu)_(resnet50_conv2_block1_3_conv_Conv2D))((server_1)_(server_1))
y_((resnet50_conv2_block1_3_conv_Conv2D)_(OutputReceiverNode))((server_0)_(server_0))
y_((resnet50_conv2_block1_3_conv_Conv2D)_(OutputReceiverNode))((server_0)_(server_1))
y_((resnet50_conv2_block1_3_conv_Conv2D)_(OutputReceiverNode))((server_1)_(server_0))
y_((resnet50_conv2_block1_3_conv_Conv2D)_(OutputReceiverNode))((server_1)_(server_1))
y_((resnet50_pool1_pad_Pad)_(resnet50_pool1_pool_MaxPool))((server_0)_(server_0))
y_((resnet50_pool1_pad_Pad)_(resnet50_pool1_pool_MaxPool))((server_0)_(server_1))
y_((resnet50_pool1_pad_Pad)_(resnet50_pool1_pool_MaxPool))((server_1)_(server_0))
y_((resnet50_pool1_pad_Pad)_(resnet50_pool1_pool_MaxPool))((server_1)_(server_1))
y_((resnet50_pool1_pool_MaxPool)_(resnet50_conv2_block1_1_conv_Conv2D))((server_0)_(server_0))
y_((resnet50_pool1_pool_MaxPool)_(resnet50_conv2_block1_1_conv_Conv2D))((server_0)_(server_1))
y_((resnet50_pool1_pool_MaxPool)_(resnet50_conv2_block1_1_conv_Conv2D))((server_1)_(server_0))
y_((resnet50_pool1_pool_MaxPool)_(resnet50_conv2_block1_1_conv_Conv2D))((server_1)_(server_1))
End
